instances/A-n11-k4-m3-b1ampl_.txt
set K:= 1	2	3	4;
set C_H:= 1	2;
set C_S:= 3	4	5	6;
set C_F:= 7	8	9	10;
set M:= 11	12	13	14	15	16;
set L_B:= 17;
set A1:=
(0,*) 1 2 7 8 9 10 11 12 13 14 15 16 17 18
(1,*) 0 2 7 8 9 10 11 12 13 14 15 16 17 18
(2,*) 0 1 7 8 9 10 11 12 13 14 15 16 17 18
(7,*) 0 1 2 8 9 10 11 12 13 14 15 16 17 18
(8,*) 0 1 2 7 9 10 11 12 13 14 15 16 17 18
(9,*) 0 1 2 7 8 10 11 12 13 14 15 16 17 18
(10,*) 0 1 2 7 8 9 11 12 13 14 15 16 17 18
(11,*) 0 1 2 7 8 9 10 12 13 14 15 16 17 18
(12,*) 0 1 2 7 8 9 10 11 13 14 15 16 17 18
(13,*) 0 1 2 7 8 9 10 11 12 14 15 16 17 18
(14,*) 0 1 2 7 8 9 10 11 12 13 15 16 17 18
(15,*) 0 1 2 7 8 9 10 11 12 13 14 16 17 18
(16,*) 0 1 2 7 8 9 10 11 12 13 14 15 17 18
(17,*) 0 1 2 7 8 9 10 11 12 13 14 15 16 18
(18,*) 0 1 2 7 8 9 10 11 12 13 14 15 16 17
;
set A2:=
(11,*) 12
(12,*) 11
(13,*) 14
(14,*) 13
(15,*) 16
(16,*) 15
;
param BigM:=99999;
param n:= 4;
param d:=
1	13
2	12
3	7
4	10
5	9
6	15
7	20
8	14
9	26
10	12
;
param Q:=100;
param w:=
[11,*] 12 2
[12,*] 11 2
[13,*] 14 2
[14,*] 13 2
[15,*] 16 2
[16,*] 15 2
;
param V:=
[11,*] 12 82
[12,*] 11 82
[13,*] 14 88
[14,*] 13 88
[15,*] 16 95
[16,*] 15 95
;
param e:
	11	12	13	14	15	16	17:=
3		0		0		0		0		0		1		0	
4		0		0		0		1		0		0		1	
5		1		0		0		1		0		0		1	
6		0		1		0		0		0		1		0	
7		0		0		1		0		0		1		0	
8		1		0		0		1		0		0		1	
9		0		0		0		1		0		0		1	
10		0		1		0		0		0		1		0	
;
param p:=
1	1
2	1
3	1
4	1
;
param G:=
11	70
12	82
13	88
14	75
15	94
16	95
17	79
;
param s:=
0	0
1	10
2	10
7	10
8	10
9	10
10	10
11	10
12	10
13	10
14	10
15	10
16	10
17	10
;
param t:
	0	1	2	3	4	5	6	7	8	9	10	11	12	13	14	15	16	17	18:=
0	0.0	11.66	17.0	73.68	69.35	75.01	90.43	75.06	65.12	81.3	101.83	27.29	102.07	80.01	70.11	15.52	80.52	73.16	0.0
1	11.66	0.0	9.22	77.1	60.42	65.19	89.69	81.3	56.92	72.18	99.81	19.72	100.69	86.7	60.83	11.18	84.59	64.43	11.66
2	17.0	9.22	0.0	70.26	52.47	58.01	81.01	76.3	48.51	64.38	90.8	10.77	91.81	82.0	53.15	4.47	78.06	56.34	17.0
3	73.68	77.1	70.26	0.0	78.01	88.01	33.02	20.62	71.03	85.63	48.09	66.12	44.55	26.0	81.02	66.48	8.54	78.23	73.68
4	69.35	60.42	52.47	78.01	0.0	10.0	65.31	94.76	7.07	12.0	66.03	42.11	70.03	101.14	3.16	54.08	86.27	4.31	69.35
5	75.01	65.19	58.01	88.01	10.0	0.0	74.46	104.69	17.03	10.0	74.11	48.26	78.41	111.07	7.07	60.21	96.26	10.74	75.01
6	90.43	89.69	81.01	33.02	65.31	74.46	0.0	53.15	59.54	68.71	15.13	73.01	12.53	57.71	68.45	78.55	36.67	63.73	90.43
7	75.06	81.3	76.3	20.62	94.76	104.69	53.15	0.0	87.69	103.48	68.03	74.95	64.03	6.4	97.62	72.01	17.26	95.57	75.06
8	65.12	56.92	48.51	71.03	7.07	17.03	59.54	87.69	0.0	17.72	61.4	37.85	65.07	94.07	10.0	49.65	79.32	8.92	65.12
9	81.3	72.18	64.38	85.63	12.0	10.0	68.71	103.48	17.72	0.0	66.75	54.08	71.39	109.79	11.4	66.07	93.61	8.8	81.3
10	101.83	99.81	90.8	48.09	66.03	74.11	15.13	68.03	61.4	66.75	0.0	81.84	5.66	72.34	69.01	88.87	51.24	63.56	101.83
11	27.29	19.72	10.77	66.12	42.11	48.26	73.01	74.95	37.85	54.08	81.84	0.0	83.24	80.99	43.0	12.0	74.33	45.87	27.29
12	102.07	100.69	91.81	44.55	70.03	78.41	12.53	64.03	65.07	71.39	5.66	83.24	0.0	68.07	73.06	89.63	47.01	67.77	102.07
13	80.01	86.7	82.0	26.0	101.14	111.07	57.71	6.4	94.07	109.79	72.34	80.99	68.07	0.0	104.0	77.67	21.1	101.91	80.01
14	70.11	60.83	53.15	81.02	3.16	7.07	68.45	97.62	10.0	11.4	69.01	43.0	73.06	104.0	0.0	55.0	89.31	6.02	70.11
15	15.52	11.18	4.47	66.48	54.08	60.21	78.55	72.01	49.65	66.07	88.87	12.0	89.63	77.67	55.0	0.0	74.17	57.8	15.52
16	80.52	84.59	78.06	8.54	86.27	96.26	36.67	17.26	79.32	93.61	51.24	74.33	47.01	21.1	89.31	74.17	0.0	86.37	80.52
17	73.16	64.43	56.34	78.23	4.31	10.74	63.73	95.57	8.92	8.8	63.56	45.87	67.77	101.91	6.02	57.8	86.37	0.0	73.16
;
